p cnf 133 476
3 -1 0
3 2 0
1 -2 -3 0
-6 4 0
-6 5 0
-4 -5 6 0
-7 -6 0
-7 -6 0
6 7 0
7 2 -8 0
-7 -2 -8 0
7 -2 8 0
-7 2 8 0
-9 -10 -11 0
9 10 -11 0
-9 10 11 0
9 -10 11 0
-12 8 0
-12 11 0
-8 -11 12 0
-14 -12 0
-14 13 0
12 -13 14 0
15 -3 0
15 -14 0
3 14 -15 0
16 3 0
16 7 0
-3 -7 -16 0
-17 1 0
-17 -13 0
-1 13 17 0
-18 -3 0
-18 17 0
3 -17 18 0
-19 -18 0
-19 -17 0
18 17 19 0
13 19 -20 0
-13 -19 -20 0
13 -19 20 0
-13 19 20 0
21 3 0
21 3 0
-3 -21 0
22 -20 0
22 -21 0
20 21 -22 0
-16 -22 -23 0
16 22 -23 0
-16 22 23 0
16 -22 23 0
15 -23 -24 0
-15 23 -24 0
15 23 24 0
-15 -23 24 0
-26 -13 0
-26 4 0
13 -4 26 0
-27 -1 0
-27 9 0
1 -9 27 0
29 27 0
29 28 0
-27 -28 -29 0
31 -2 0
31 30 0
2 -30 -31 0
-29 -31 -32 0
29 31 -32 0
-29 31 32 0
29 -31 32 0
-33 -26 0
-33 -32 0
26 32 33 0
-25 33 -34 0
25 -33 -34 0
-25 -33 34 0
25 33 34 0
3 22 -35 0
-3 -22 -35 0
3 -22 35 0
-3 22 35 0
-36 34 0
-36 35 0
-34 -35 36 0
-9 6 -37 0
9 -6 -37 0
-9 -6 37 0
9 6 37 0
-38 37 0
-38 -25 0
-37 25 38 0
39 31 0
39 38 0
-31 -38 -39 0
36 39 -40 0
-36 -39 -40 0
36 -39 40 0
-36 39 40 0
-43 -41 0
-43 -42 0
41 42 43 0
-43 -20 -44 0
43 20 -44 0
-43 20 44 0
43 -20 44 0
-45 -28 0
-45 28 0
-46 44 0
-46 45 0
-44 -45 46 0
-45 47 -48 0
45 -47 -48 0
-45 -47 48 0
45 47 48 0
49 37 0
49 -48 0
-37 48 -49 0
-50 46 0
-50 49 0
-46 -49 50 0
-40 50 -51 0
40 -50 -51 0
-40 -50 51 0
40 50 51 0
-27 -3 -52 0
27 3 -52 0
-27 3 52 0
27 -3 52 0
53 -17 0
53 11 0
17 -11 -53 0
54 -52 0
54 -53 0
52 53 -54 0
-55 -12 0
-55 9 0
12 -9 55 0
54 -55 -56 0
-54 55 -56 0
54 55 56 0
-54 -55 56 0
57 -51 0
57 56 0
51 -56 -57 0
24 57 -58 0
-24 -57 -58 0
24 -57 58 0
-24 57 58 0
-19 1 -59 0
19 -1 -59 0
-19 -1 59 0
19 1 59 0
60 5 0
60 -7 0
-5 7 -60 0
-61 -59 0
-61 60 0
59 -60 61 0
-62 -61 0
-62 -45 0
61 45 62 0
63 -62 0
63 -32 0
62 32 -63 0
64 -25 0
64 -18 0
25 18 -64 0
65 47 0
65 37 0
-47 -37 -65 0
-64 65 -66 0
64 -65 -66 0
-64 -65 66 0
64 65 66 0
66 -2 -67 0
-66 2 -67 0
66 2 67 0
-66 -2 67 0
68 -63 0
68 -67 0
63 67 -68 0
69 -8 0
69 -67 0
8 67 -69 0
-70 -13 0
-70 9 0
13 -9 70 0
71 69 0
71 -70 0
-69 70 -71 0
-72 68 0
-72 -71 0
-68 71 72 0
58 -72 -73 0
-58 72 -73 0
58 72 73 0
-58 -72 73 0
74 9 0
74 -21 0
-9 21 -74 0
-75 27 0
-75 -45 0
-27 45 75 0
74 75 -76 0
-74 -75 -76 0
74 -75 76 0
-74 75 76 0
77 7 0
77 -76 0
-7 76 -77 0
78 -41 0
78 48 0
41 -48 -78 0
79 78 0
79 -1 0
-78 1 -79 0
-80 5 0
-80 -28 0
-5 28 80 0
-81 -80 0
-81 -26 0
80 26 81 0
-82 42 0
-82 28 0
-42 -28 82 0
-19 -82 -83 0
19 82 -83 0
-19 82 83 0
19 -82 83 0
-84 -22 0
-84 32 0
22 -32 84 0
-85 84 0
-85 -14 0
-84 14 85 0
-86 52 0
-86 -85 0
-52 85 86 0
21 11 -87 0
-21 -11 -87 0
21 -11 87 0
-21 11 87 0
-88 86 0
-88 -87 0
-86 87 88 0
-89 -83 0
-89 88 0
83 -88 89 0
2 -7 -90 0
-2 7 -90 0
2 7 90 0
-2 -7 90 0
91 89 0
91 -90 0
-89 90 -91 0
92 -81 0
92 91 0
81 -91 -92 0
93 25 0
93 27 0
-25 -27 -93 0
-94 2 0
-94 -21 0
-2 21 94 0
95 -80 0
95 -94 0
80 94 -95 0
96 6 0
96 95 0
-6 -95 -96 0
-97 -25 0
-97 96 0
25 -96 97 0
25 -47 -98 0
-25 47 -98 0
25 47 98 0
-25 -47 98 0
-6 98 -99 0
6 -98 -99 0
-6 -98 99 0
6 98 99 0
-97 -99 -100 0
97 99 -100 0
-97 99 100 0
97 -99 100 0
-101 -82 0
-101 100 0
82 -100 101 0
-102 -93 0
-102 -101 0
93 101 102 0
-103 42 0
-103 -38 0
-42 38 103 0
-102 -103 -104 0
102 103 -104 0
-102 103 104 0
102 -103 104 0
92 104 -105 0
-92 -104 -105 0
92 -104 105 0
-92 104 105 0
106 79 0
106 105 0
-79 -105 -106 0
77 106 -107 0
-77 -106 -107 0
77 -106 107 0
-77 106 107 0
-108 -32 0
-108 47 0
32 -47 108 0
-80 -61 -109 0
80 61 -109 0
-80 61 109 0
80 -61 109 0
111 1 0
111 110 0
-1 -110 -111 0
112 109 0
112 -111 0
-109 111 -112 0
-59 21 -113 0
59 -21 -113 0
-59 -21 113 0
59 21 113 0
114 112 0
114 -113 0
-112 113 -114 0
115 -108 0
115 -114 0
108 114 -115 0
-4 8 -116 0
4 -8 -116 0
-4 -8 116 0
4 8 116 0
-116 -26 -117 0
116 26 -117 0
-116 26 117 0
116 -26 117 0
-118 -4 0
-118 -53 0
4 53 118 0
117 -118 -119 0
-117 118 -119 0
117 118 119 0
-117 -118 119 0
98 -53 -120 0
-98 53 -120 0
98 53 120 0
-98 -53 120 0
-120 3 -121 0
120 -3 -121 0
-120 -3 121 0
120 3 121 0
122 8 0
122 -121 0
-8 121 -122 0
-9 2 -123 0
9 -2 -123 0
-9 -2 123 0
9 2 123 0
-124 -74 0
-124 -123 0
74 123 124 0
-125 42 0
-125 124 0
-42 -124 125 0
-126 -3 0
-126 11 0
3 -11 126 0
-127 -94 0
-127 126 0
94 -126 127 0
-128 125 0
-128 127 0
-125 -127 128 0
129 -122 0
129 128 0
122 -128 -129 0
130 -119 0
130 129 0
119 -129 -130 0
131 -115 0
131 -130 0
115 130 -131 0
107 131 -132 0
-107 -131 -132 0
107 -131 132 0
-107 131 132 0
-73 132 -133 0
73 -132 -133 0
-73 -132 133 0
73 132 133 0
52 91 0
70 100 -47 0
-129 -43 0
45 -113 -107 83 0
-26 -54 84 0
-22 51 -41 -124 -110 0
60 24 0
74 -64 39 79 0
-26 -110 62 0
13 -115 -32 0
-1 -112 61 125 0
-42 69 7 21 0
108 -28 -20 0
-131 72 -58 -48 53 118 0
-124 133 67 31 35 0
127 -93 51 -30 0
47 84 133 102 0
80 -109 102 64 77 -104 0
102 7 -66 -122 0
31 118 -123 -68 0
-51 -56 0
98 103 -13 0
63 -132 -92 -69 2 67 0
-55 -44 80 37 -33 0
53 -95 -126 0
11 -35 0
-130 112 26 -44 0
-16 -61 75 -3 -60 0
-49 32 7 -97 0
-3 -113 0
37 -29 -126 16 132 0
-103 25 -82 0
-84 17 117 96 25 0
132 78 -43 -9 -133 0
-45 25 70 -42 0
55 74 0
-122 71 -120 28 0
38 46 -85 0
60 -34 -27 89 101 0
91 56 -62 0
-114 -66 -115 0
108 97 0
123 19 0
-105 111 -62 87 0
42 76 -11 0
-26 -16 0
11 -132 111 -114 -123 13 0
-47 112 -87 -55 62 0
-46 -58 2 0
-18 -30 -82 36 -84 -64 0
-87 -122 42 113 0
-100 -13 0
-56 -123 0
98 -5 111 99 104 128 0
108 1 36 -45 56 96 0
29 39 0
10 -17 0
-23 -39 -33 0
-123 -42 -90 118 0
-93 -27 0
1 86 0
-93 -35 0
67 122 60 -95 32 90 0
126 89 -14 -99 2 0
-13 -115 -71 -118 -61 -88 0
-23 122 -1 -75 -105 79 0
83 -46 77 -72 -126 0
114 32 64 0
15 119 0
63 -49 41 24 -11 117 0
-24 -17 57 8 0
-26 -40 -84 0
-58 -26 0
-56 104 -35 -74 0
-60 -93 88 -97 0
-101 45 121 -48 40 0
19 -62 -18 -93 0
121 -38 0
-130 -107 40 -50 0
133 0
